benchmark_str_length/p1_10_10-4.dzn
Alphabet = {A,C,G,T};
ns = 10;
nc = 10;
sl = 10;
neighbours = [| I(G),I(G),I(C),I(A),I(A),I(A),I(C),I(A),I(A),I(A) | I(A),I(C),I(A),I(A),I(A),I(C),I(A),I(C),I(C),I(A) | I(A),I(A),I(A),I(A),I(A),I(T),I(C),I(A),I(C),I(A) | I(C),I(A),I(C),I(A),I(C),I(A),I(A),I(A),I(A),I(A) | I(A),I(C),I(A),I(A),I(A),I(A),I(A),I(A),I(A),I(A) | I(A),I(C),I(A),I(A),I(A),I(A),I(A),I(A),I(A),I(A) | I(C),I(C),I(A),I(C),I(A),I(A),I(A),I(G),I(A),I(G) | I(C),I(C),I(C),I(A),I(C),I(A),I(A),I(A),I(A),I(A) | I(C),I(A),I(A),I(A),I(A),I(C),I(A),I(A),I(A),I(C) | I(A),I(A),I(A),I(A),I(A),I(A),I(A),I(C),I(G),I(G) |];
