benchmark_str_length/p1_10_10-4.txt
{
	"num_strings": 10,
	"alphabet": "ACGT",
	"strings": [
		"GGCAAACAAA",
		"ACAAACACCA",
		"AAAAATCACA",
		"CACACAAAAA",
		"ACAAAAAAAA",
		"ACAAAAAAAA",
		"CCACAAAGAG",
		"CCCACAAAAA",
		"CAAAACAAAC",
		"AAAAAAACGG"
	],
	"str_length":[10,10,10,10,10,10,10,10,10,10]
}